$instance size is  200
letting capacity be  49143
letting items be new type enum { 
a1,a2,a3,a4,a5,a6,a7,a8,a9,a10,a11,a12,a13,a14,a15,a16,a17,a18,a19,a20,a21,a22,a23,a24,a25,a26,a27,a28,a29,a30,a31,a32,a33,a34,a35,a36,a37,a38,a39,a40,a41,a42,a43,a44,a45,a46,a47,a48,a49,a50,a51,a52,a53,a54,a55,a56,a57,a58,a59,a60,a61,a62,a63,a64,a65,a66,a67,a68,a69,a70,a71,a72,a73,a74,a75,a76,a77,a78,a79,a80,a81,a82,a83,a84,a85,a86,a87,a88,a89,a90,a91,a92,a93,a94,a95,a96,a97,a98,a99,a100,a101,a102,a103,a104,a105,a106,a107,a108,a109,a110,a111,a112,a113,a114,a115,a116,a117,a118,a119,a120,a121,a122,a123,a124,a125,a126,a127,a128,a129,a130,a131,a132,a133,a134,a135,a136,a137,a138,a139,a140,a141,a142,a143,a144,a145,a146,a147,a148,a149,a150,a151,a152,a153,a154,a155,a156,a157,a158,a159,a160,a161,a162,a163,a164,a165,a166,a167,a168,a169,a170,a171,a172,a173,a174,a175,a176,a177,a178,a179,a180,a181,a182,a183,a184,a185,a186,a187,a188,a189,a190,a191,a192,a193,a194,a195,a196,a197,a198,a199,a200
}
letting weight be function (
a1 --> 586,a2 --> 915,a3 --> 156,a4 --> 272,a5 --> 278,a6 --> 629,a7 --> 198,a8 --> 632,a9 --> 435,a10 --> 991,a11 --> 971,a12 --> 15,a13 --> 383,a14 --> 822,a15 --> 83,a16 --> 640,a17 --> 170,a18 --> 470,a19 --> 687,a20 --> 6,a21 --> 286,a22 --> 347,a23 --> 472,a24 --> 564,a25 --> 693,a26 --> 483,a27 --> 404,a28 --> 532,a29 --> 294,a30 --> 917,a31 --> 377,a32 --> 716,a33 --> 80,a34 --> 931,a35 --> 600,a36 --> 217,a37 --> 205,a38 --> 979,a39 --> 683,a40 --> 904,a41 --> 568,a42 --> 986,a43 --> 134,a44 --> 503,a45 --> 63,a46 --> 927,a47 --> 865,a48 --> 913,a49 --> 185,a50 --> 30,a51 --> 939,a52 --> 479,a53 --> 215,a54 --> 409,a55 --> 1000,a56 --> 494,a57 --> 423,a58 --> 560,a59 --> 92,a60 --> 199,a61 --> 420,a62 --> 698,a63 --> 278,a64 --> 394,a65 --> 623,a66 --> 729,a67 --> 309,a68 --> 874,a69 --> 865,a70 --> 538,a71 --> 877,a72 --> 307,a73 --> 285,a74 --> 474,a75 --> 171,a76 --> 390,a77 --> 338,a78 --> 9,a79 --> 20,a80 --> 884,a81 --> 271,a82 --> 754,a83 --> 402,a84 --> 702,a85 --> 925,a86 --> 25,a87 --> 686,a88 --> 547,a89 --> 168,a90 --> 259,a91 --> 166,a92 --> 706,a93 --> 590,a94 --> 449,a95 --> 184,a96 --> 147,a97 --> 781,a98 --> 36,a99 --> 165,a100 --> 361,a101 --> 153,a102 --> 226,a103 --> 807,a104 --> 666,a105 --> 859,a106 --> 767,a107 --> 978,a108 --> 13,a109 --> 698,a110 --> 869,a111 --> 998,a112 --> 770,a113 --> 174,a114 --> 780,a115 --> 434,a116 --> 149,a117 --> 71,a118 --> 89,a119 --> 466,a120 --> 131,a121 --> 546,a122 --> 699,a123 --> 610,a124 --> 587,a125 --> 236,a126 --> 881,a127 --> 161,a128 --> 542,a129 --> 116,a130 --> 21,a131 --> 631,a132 --> 607,a133 --> 532,a134 --> 707,a135 --> 510,a136 --> 52,a137 --> 321,a138 --> 482,a139 --> 483,a140 --> 722,a141 --> 230,a142 --> 457,a143 --> 726,a144 --> 76,a145 --> 180,a146 --> 115,a147 --> 213,a148 --> 555,a149 --> 541,a150 --> 419,a151 --> 493,a152 --> 15,a153 --> 996,a154 --> 864,a155 --> 601,a156 --> 580,a157 --> 678,a158 --> 457,a159 --> 400,a160 --> 909,a161 --> 659,a162 --> 354,a163 --> 778,a164 --> 349,a165 --> 93,a166 --> 405,a167 --> 411,a168 --> 616,a169 --> 966,a170 --> 913,a171 --> 511,a172 --> 326,a173 --> 518,a174 --> 798,a175 --> 395,a176 --> 680,a177 --> 243,a178 --> 102,a179 --> 746,a180 --> 617,a181 --> 855,a182 --> 518,a183 --> 477,a184 --> 613,a185 --> 981,a186 --> 378,a187 --> 233,a188 --> 796,a189 --> 308,a190 --> 419,a191 --> 757,a192 --> 64,a193 --> 674,a194 --> 484,a195 --> 984,a196 --> 154,a197 --> 697,a198 --> 968,a199 --> 695,a200 --> 872
)
letting gain be function (
a1 --> 786,a2 --> 1115,a3 --> 456,a4 --> 472,a5 --> 478,a6 --> 829,a7 --> 498,a8 --> 832,a9 --> 635,a10 --> 1191,a11 --> 1171,a12 --> 215,a13 --> 583,a14 --> 1122,a15 --> 283,a16 --> 840,a17 --> 370,a18 --> 670,a19 --> 887,a20 --> 306,a21 --> 486,a22 --> 547,a23 --> 672,a24 --> 864,a25 --> 893,a26 --> 683,a27 --> 604,a28 --> 732,a29 --> 594,a30 --> 1117,a31 --> 577,a32 --> 916,a33 --> 280,a34 --> 1131,a35 --> 900,a36 --> 417,a37 --> 405,a38 --> 1179,a39 --> 883,a40 --> 1104,a41 --> 768,a42 --> 1186,a43 --> 334,a44 --> 703,a45 --> 263,a46 --> 1127,a47 --> 1065,a48 --> 1113,a49 --> 385,a50 --> 330,a51 --> 1139,a52 --> 679,a53 --> 415,a54 --> 609,a55 --> 1200,a56 --> 694,a57 --> 623,a58 --> 760,a59 --> 292,a60 --> 399,a61 --> 720,a62 --> 898,a63 --> 478,a64 --> 594,a65 --> 823,a66 --> 929,a67 --> 509,a68 --> 1074,a69 --> 1065,a70 --> 738,a71 --> 1077,a72 --> 507,a73 --> 485,a74 --> 774,a75 --> 371,a76 --> 690,a77 --> 538,a78 --> 209,a79 --> 220,a80 --> 1084,a81 --> 471,a82 --> 954,a83 --> 702,a84 --> 1002,a85 --> 1125,a86 --> 225,a87 --> 886,a88 --> 747,a89 --> 468,a90 --> 459,a91 --> 366,a92 --> 906,a93 --> 790,a94 --> 649,a95 --> 384,a96 --> 347,a97 --> 981,a98 --> 336,a99 --> 365,a100 --> 561,a101 --> 353,a102 --> 426,a103 --> 1007,a104 --> 966,a105 --> 1059,a106 --> 967,a107 --> 1278,a108 --> 213,a109 --> 898,a110 --> 1069,a111 --> 1198,a112 --> 970,a113 --> 474,a114 --> 1080,a115 --> 634,a116 --> 349,a117 --> 271,a118 --> 289,a119 --> 666,a120 --> 331,a121 --> 846,a122 --> 899,a123 --> 810,a124 --> 787,a125 --> 436,a126 --> 1081,a127 --> 361,a128 --> 742,a129 --> 316,a130 --> 221,a131 --> 831,a132 --> 807,a133 --> 732,a134 --> 907,a135 --> 810,a136 --> 252,a137 --> 521,a138 --> 682,a139 --> 683,a140 --> 922,a141 --> 430,a142 --> 657,a143 --> 1026,a144 --> 276,a145 --> 480,a146 --> 315,a147 --> 413,a148 --> 755,a149 --> 741,a150 --> 619,a151 --> 693,a152 --> 215,a153 --> 1296,a154 --> 1164,a155 --> 801,a156 --> 780,a157 --> 978,a158 --> 657,a159 --> 600,a160 --> 1109,a161 --> 859,a162 --> 654,a163 --> 978,a164 --> 549,a165 --> 293,a166 --> 605,a167 --> 611,a168 --> 816,a169 --> 1266,a170 --> 1113,a171 --> 711,a172 --> 526,a173 --> 718,a174 --> 1098,a175 --> 595,a176 --> 880,a177 --> 443,a178 --> 402,a179 --> 946,a180 --> 817,a181 --> 1055,a182 --> 718,a183 --> 677,a184 --> 813,a185 --> 1181,a186 --> 678,a187 --> 433,a188 --> 996,a189 --> 508,a190 --> 619,a191 --> 957,a192 --> 264,a193 --> 874,a194 --> 684,a195 --> 1284,a196 --> 354,a197 --> 897,a198 --> 1168,a199 --> 895,a200 --> 1072
)
